nNurses = 245;
hours = 92;
demand = [25 34 15 61 42 23 50 13 20 31 11 12 54 14 4 18 53 29 58 4 12 24 19 33 26 32 26 41 9 27 27 32 9 57 32 53 27 4 6 43 37 43 1 5 29 46 57 8 22 7 50 42 14 58 0 32 28 22 52 44 16 37 48 27 18 38 53 10 39 8 3 50 20 16 22 50 40 23 23 27 3 48 18 34 25 3 37 31 5 47 42 32];
minHours = 21;
maxHours = 37;
maxConsec = 6;
maxPresence = 45;